
Gurobi 8.1.1 (win64, Matlab) logging started 08/14/19 11:49:03


Gurobi 8.1.1 (win64, Matlab) logging started 08/14/19 11:51:27


Gurobi 8.1.1 (win64, Matlab) logging started 08/14/19 11:51:27


Gurobi 8.1.1 (win64, Matlab) logging started 08/14/19 11:51:27


Gurobi 8.1.1 (win64, Matlab) logging started 08/14/19 11:51:27


Gurobi 8.1.1 (win64, Matlab) logging started 08/14/19 11:51:27


Gurobi 8.1.1 (win64, Matlab) logging started 08/14/19 11:51:27


Gurobi 8.1.1 (win64, Matlab) logging started 08/14/19 11:51:27


Gurobi 8.1.1 (win64, Matlab) logging started 08/14/19 11:51:27


Gurobi 8.1.1 (win64, Matlab) logging started 08/14/19 11:51:27


Gurobi 8.1.1 (win64, Matlab) logging started 08/14/19 11:51:27


Gurobi 8.1.1 (win64, Matlab) logging started 08/14/19 11:51:27


Gurobi 8.1.1 (win64, Matlab) logging started 08/14/19 11:51:27


Gurobi 8.1.1 (win64, Matlab) logging started 08/14/19 11:51:27


Gurobi 8.1.1 (win64, Matlab) logging started 08/14/19 11:51:27


Gurobi 8.1.1 (win64, Matlab) logging started 08/14/19 11:51:27


Gurobi 8.1.1 (win64, Matlab) logging started 08/14/19 11:51:27


Gurobi 8.1.1 (win64, Matlab) logging started 08/14/19 11:51:27


Gurobi 8.1.1 (win64, Matlab) logging started 08/14/19 11:51:27


Gurobi 8.1.1 (win64, Matlab) logging started 08/14/19 11:51:27


Gurobi 8.1.1 (win64, Matlab) logging started 08/14/19 11:51:27


Gurobi 8.1.1 (win64, Matlab) logging started 08/14/19 11:51:27


Gurobi 8.1.1 (win64, Matlab) logging started 08/14/19 11:51:27


Gurobi 8.1.1 (win64, Matlab) logging started 08/14/19 11:51:27


Gurobi 8.1.1 (win64, Matlab) logging started 08/14/19 11:51:27


Gurobi 8.1.1 (win64, Matlab) logging started 08/14/19 11:51:27


Gurobi 8.1.1 (win64, Matlab) logging started 08/14/19 11:51:27


Gurobi 8.1.1 (win64, Matlab) logging started 08/14/19 11:51:27


Gurobi 8.1.1 (win64, Matlab) logging started 08/14/19 11:51:27


Gurobi 8.1.1 (win64, Matlab) logging started 08/14/19 11:51:27


Gurobi 8.1.1 (win64, Matlab) logging started 08/14/19 11:51:27


Gurobi 8.1.1 (win64, Matlab) logging started 08/14/19 11:51:27


Gurobi 8.1.1 (win64, Matlab) logging started 08/14/19 11:51:27


Gurobi 8.1.1 (win64, Matlab) logging started 08/14/19 11:51:27


Gurobi 8.1.1 (win64, Matlab) logging started 08/14/19 11:51:27


Gurobi 8.1.1 (win64, Matlab) logging started 08/14/19 11:51:27


Gurobi 8.1.1 (win64, Matlab) logging started 08/14/19 11:51:27


Gurobi 8.1.1 (win64, Matlab) logging started 08/14/19 11:51:27


Gurobi 8.1.1 (win64, Matlab) logging started 08/14/19 11:51:27


Gurobi 8.1.1 (win64, Matlab) logging started 08/14/19 11:51:27


Gurobi 8.1.1 (win64, Matlab) logging started 08/14/19 11:51:27


Gurobi 8.1.1 (win64, Matlab) logging started 08/14/19 11:51:27


Gurobi 8.1.1 (win64, Matlab) logging started 08/14/19 11:51:27


Gurobi 8.1.1 (win64, Matlab) logging started 08/14/19 11:51:27


Gurobi 8.1.1 (win64, Matlab) logging started 08/14/19 11:51:27


Gurobi 8.1.1 (win64, Matlab) logging started 08/14/19 11:51:27


Gurobi 8.1.1 (win64, Matlab) logging started 08/14/19 11:51:27


Gurobi 8.1.1 (win64, Matlab) logging started 08/14/19 11:51:27


Gurobi 8.1.1 (win64, Matlab) logging started 08/14/19 11:51:27


Gurobi 8.1.1 (win64, Matlab) logging started 08/14/19 11:51:27


Gurobi 8.1.1 (win64, Matlab) logging started 08/14/19 11:51:27


Gurobi 8.1.1 (win64, Matlab) logging started 08/14/19 11:51:27


Gurobi 8.1.1 (win64, Matlab) logging started 08/14/19 11:51:27


Gurobi 8.1.1 (win64, Matlab) logging started 08/14/19 11:51:27


Gurobi 8.1.1 (win64, Matlab) logging started 08/14/19 11:51:27


Gurobi 8.1.1 (win64, Matlab) logging started 08/14/19 11:51:27


Gurobi 8.1.1 (win64, Matlab) logging started 08/14/19 11:51:27


Gurobi 8.1.1 (win64, Matlab) logging started 08/14/19 11:51:27


Gurobi 8.1.1 (win64, Matlab) logging started 08/14/19 11:51:28


Gurobi 8.1.1 (win64, Matlab) logging started 08/14/19 11:51:28


Gurobi 8.1.1 (win64, Matlab) logging started 08/14/19 11:51:28


Gurobi 8.1.1 (win64, Matlab) logging started 08/14/19 11:51:28


Gurobi 8.1.1 (win64, Matlab) logging started 08/14/19 11:51:28


Gurobi 8.1.1 (win64, Matlab) logging started 08/14/19 11:51:28


Gurobi 8.1.1 (win64, Matlab) logging started 08/14/19 11:51:28


Gurobi 8.1.1 (win64, Matlab) logging started 08/14/19 11:51:28


Gurobi 8.1.1 (win64, Matlab) logging started 08/14/19 11:51:28


Gurobi 8.1.1 (win64, Matlab) logging started 08/14/19 11:51:28


Gurobi 8.1.1 (win64, Matlab) logging started 08/14/19 11:51:28


Gurobi 8.1.1 (win64, Matlab) logging started 08/14/19 11:51:28


Gurobi 8.1.1 (win64, Matlab) logging started 08/14/19 11:51:28


Gurobi 8.1.1 (win64, Matlab) logging started 08/14/19 11:51:28


Gurobi 8.1.1 (win64, Matlab) logging started 08/14/19 11:51:28


Gurobi 8.1.1 (win64, Matlab) logging started 08/14/19 11:51:28


Gurobi 8.1.1 (win64, Matlab) logging started 08/14/19 11:51:28


Gurobi 8.1.1 (win64, Matlab) logging started 08/14/19 11:51:28


Gurobi 8.1.1 (win64, Matlab) logging started 08/14/19 11:51:28


Gurobi 8.1.1 (win64, Matlab) logging started 08/14/19 11:51:28


Gurobi 8.1.1 (win64, Matlab) logging started 08/14/19 11:51:28


Gurobi 8.1.1 (win64, Matlab) logging started 08/14/19 11:51:28


Gurobi 8.1.1 (win64, Matlab) logging started 08/14/19 11:51:28


Gurobi 8.1.1 (win64, Matlab) logging started 08/14/19 11:51:28


Gurobi 8.1.1 (win64, Matlab) logging started 08/14/19 11:51:28


Gurobi 8.1.1 (win64, Matlab) logging started 08/14/19 11:51:28


Gurobi 8.1.1 (win64, Matlab) logging started 08/14/19 11:51:28


Gurobi 8.1.1 (win64, Matlab) logging started 08/14/19 11:51:28


Gurobi 8.1.1 (win64, Matlab) logging started 08/14/19 11:51:28


Gurobi 8.1.1 (win64, Matlab) logging started 08/14/19 11:51:28


Gurobi 8.1.1 (win64, Matlab) logging started 08/14/19 11:51:28


Gurobi 8.1.1 (win64, Matlab) logging started 08/14/19 11:51:28


Gurobi 8.1.1 (win64, Matlab) logging started 08/14/19 11:51:28


Gurobi 8.1.1 (win64, Matlab) logging started 08/14/19 11:51:28


Gurobi 8.1.1 (win64, Matlab) logging started 08/14/19 11:51:28


Gurobi 8.1.1 (win64, Matlab) logging started 08/14/19 11:51:28


Gurobi 8.1.1 (win64, Matlab) logging started 08/14/19 11:51:28


Gurobi 8.1.1 (win64, Matlab) logging started 08/14/19 11:51:28


Gurobi 8.1.1 (win64, Matlab) logging started 08/14/19 11:51:28


Gurobi 8.1.1 (win64, Matlab) logging started 08/14/19 11:51:28


Gurobi 8.1.1 (win64, Matlab) logging started 08/14/19 11:51:28


Gurobi 8.1.1 (win64, Matlab) logging started 08/14/19 11:51:28


Gurobi 8.1.1 (win64, Matlab) logging started 08/14/19 11:51:28


Gurobi 8.1.1 (win64, Matlab) logging started 08/14/19 11:51:28


Gurobi 8.1.1 (win64, Matlab) logging started 08/14/19 11:51:28


Gurobi 8.1.1 (win64, Matlab) logging started 08/14/19 11:51:28


Gurobi 8.1.1 (win64, Matlab) logging started 08/14/19 11:51:28


Gurobi 8.1.1 (win64, Matlab) logging started 08/14/19 11:51:28


Gurobi 8.1.1 (win64, Matlab) logging started 08/14/19 11:51:28


Gurobi 8.1.1 (win64, Matlab) logging started 08/14/19 11:51:28


Gurobi 8.1.1 (win64, Matlab) logging started 08/14/19 11:51:28


Gurobi 8.1.1 (win64, Matlab) logging started 08/14/19 11:51:28


Gurobi 8.1.1 (win64, Matlab) logging started 08/14/19 11:51:28


Gurobi 8.1.1 (win64, Matlab) logging started 08/14/19 11:51:28


Gurobi 8.1.1 (win64, Matlab) logging started 08/14/19 11:51:28


Gurobi 8.1.1 (win64, Matlab) logging started 08/14/19 11:51:28


Gurobi 8.1.1 (win64, Matlab) logging started 08/14/19 11:51:28


Gurobi 8.1.1 (win64, Matlab) logging started 08/14/19 11:51:28


Gurobi 8.1.1 (win64, Matlab) logging started 08/14/19 11:51:28


Gurobi 8.1.1 (win64, Matlab) logging started 08/14/19 11:51:28


Gurobi 8.1.1 (win64, Matlab) logging started 08/14/19 11:51:28


Gurobi 8.1.1 (win64, Matlab) logging started 08/14/19 11:51:28


Gurobi 8.1.1 (win64, Matlab) logging started 08/14/19 11:51:28


Gurobi 8.1.1 (win64, Matlab) logging started 08/14/19 11:51:28


Gurobi 8.1.1 (win64, Matlab) logging started 08/14/19 11:51:28


Gurobi 8.1.1 (win64, Matlab) logging started 08/14/19 11:51:28


Gurobi 8.1.1 (win64, Matlab) logging started 08/14/19 11:51:28


Gurobi 8.1.1 (win64, Matlab) logging started 08/14/19 11:51:28


Gurobi 8.1.1 (win64, Matlab) logging started 08/14/19 11:51:28


Gurobi 8.1.1 (win64, Matlab) logging started 08/14/19 11:51:28


Gurobi 8.1.1 (win64, Matlab) logging started 08/14/19 11:51:28


Gurobi 8.1.1 (win64, Matlab) logging started 08/14/19 11:51:28


Gurobi 8.1.1 (win64, Matlab) logging started 08/14/19 11:51:28


Gurobi 8.1.1 (win64, Matlab) logging started 08/14/19 11:51:28


Gurobi 8.1.1 (win64, Matlab) logging started 08/14/19 11:51:28


Gurobi 8.1.1 (win64, Matlab) logging started 08/14/19 11:51:28


Gurobi 8.1.1 (win64, Matlab) logging started 08/14/19 11:51:28


Gurobi 8.1.1 (win64, Matlab) logging started 08/14/19 11:51:28


Gurobi 8.1.1 (win64, Matlab) logging started 08/14/19 11:51:28


Gurobi 8.1.1 (win64, Matlab) logging started 08/14/19 11:51:28


Gurobi 8.1.1 (win64, Matlab) logging started 08/14/19 11:51:28


Gurobi 8.1.1 (win64, Matlab) logging started 08/14/19 11:51:28


Gurobi 8.1.1 (win64, Matlab) logging started 08/14/19 11:51:28


Gurobi 8.1.1 (win64, Matlab) logging started 08/14/19 11:51:28


Gurobi 8.1.1 (win64, Matlab) logging started 08/14/19 11:51:28


Gurobi 8.1.1 (win64, Matlab) logging started 08/14/19 11:51:28


Gurobi 8.1.1 (win64, Matlab) logging started 08/14/19 11:51:28


Gurobi 8.1.1 (win64, Matlab) logging started 08/14/19 11:51:28


Gurobi 8.1.1 (win64, Matlab) logging started 08/14/19 11:51:28


Gurobi 8.1.1 (win64, Matlab) logging started 08/14/19 11:51:28


Gurobi 8.1.1 (win64, Matlab) logging started 08/14/19 11:51:28


Gurobi 8.1.1 (win64, Matlab) logging started 08/14/19 11:51:28


Gurobi 8.1.1 (win64, Matlab) logging started 08/14/19 11:53:25


Gurobi 8.1.1 (win64, Matlab) logging started 08/14/19 11:55:53


Gurobi 8.1.1 (win64, Matlab) logging started 08/14/19 11:55:53


Gurobi 8.1.1 (win64, Matlab) logging started 08/14/19 11:55:53


Gurobi 8.1.1 (win64, Matlab) logging started 08/14/19 11:55:53


Gurobi 8.1.1 (win64, Matlab) logging started 08/14/19 11:55:53


Gurobi 8.1.1 (win64, Matlab) logging started 08/14/19 11:55:53


Gurobi 8.1.1 (win64, Matlab) logging started 08/14/19 11:55:53


Gurobi 8.1.1 (win64, Matlab) logging started 08/14/19 11:55:53


Gurobi 8.1.1 (win64, Matlab) logging started 08/14/19 11:55:53


Gurobi 8.1.1 (win64, Matlab) logging started 08/14/19 11:55:53


Gurobi 8.1.1 (win64, Matlab) logging started 08/14/19 11:55:53


Gurobi 8.1.1 (win64, Matlab) logging started 08/14/19 11:55:53


Gurobi 8.1.1 (win64, Matlab) logging started 08/14/19 11:55:53


Gurobi 8.1.1 (win64, Matlab) logging started 08/14/19 11:55:53


Gurobi 8.1.1 (win64, Matlab) logging started 08/14/19 11:55:53


Gurobi 8.1.1 (win64, Matlab) logging started 08/14/19 11:55:53


Gurobi 8.1.1 (win64, Matlab) logging started 08/14/19 11:55:53


Gurobi 8.1.1 (win64, Matlab) logging started 08/14/19 11:55:53


Gurobi 8.1.1 (win64, Matlab) logging started 08/14/19 11:55:53


Gurobi 8.1.1 (win64, Matlab) logging started 08/14/19 11:55:53


Gurobi 8.1.1 (win64, Matlab) logging started 08/14/19 11:55:53


Gurobi 8.1.1 (win64, Matlab) logging started 08/14/19 11:55:53


Gurobi 8.1.1 (win64, Matlab) logging started 08/14/19 11:55:53


Gurobi 8.1.1 (win64, Matlab) logging started 08/14/19 11:55:53


Gurobi 8.1.1 (win64, Matlab) logging started 08/14/19 11:55:53


Gurobi 8.1.1 (win64, Matlab) logging started 08/14/19 11:55:53


Gurobi 8.1.1 (win64, Matlab) logging started 08/14/19 11:55:53


Gurobi 8.1.1 (win64, Matlab) logging started 08/14/19 11:55:53


Gurobi 8.1.1 (win64, Matlab) logging started 08/14/19 11:55:53


Gurobi 8.1.1 (win64, Matlab) logging started 08/14/19 11:55:53


Gurobi 8.1.1 (win64, Matlab) logging started 08/14/19 11:55:53


Gurobi 8.1.1 (win64, Matlab) logging started 08/14/19 11:55:53


Gurobi 8.1.1 (win64, Matlab) logging started 08/14/19 11:55:53


Gurobi 8.1.1 (win64, Matlab) logging started 08/14/19 11:55:53


Gurobi 8.1.1 (win64, Matlab) logging started 08/14/19 11:55:53


Gurobi 8.1.1 (win64, Matlab) logging started 08/14/19 11:55:53


Gurobi 8.1.1 (win64, Matlab) logging started 08/14/19 11:55:53


Gurobi 8.1.1 (win64, Matlab) logging started 08/14/19 11:55:53


Gurobi 8.1.1 (win64, Matlab) logging started 08/14/19 11:55:53


Gurobi 8.1.1 (win64, Matlab) logging started 08/14/19 11:55:53


Gurobi 8.1.1 (win64, Matlab) logging started 08/14/19 11:55:53


Gurobi 8.1.1 (win64, Matlab) logging started 08/14/19 11:55:53


Gurobi 8.1.1 (win64, Matlab) logging started 08/14/19 11:55:53


Gurobi 8.1.1 (win64, Matlab) logging started 08/14/19 11:55:53


Gurobi 8.1.1 (win64, Matlab) logging started 08/14/19 11:55:53


Gurobi 8.1.1 (win64, Matlab) logging started 08/14/19 11:55:53


Gurobi 8.1.1 (win64, Matlab) logging started 08/14/19 11:55:53


Gurobi 8.1.1 (win64, Matlab) logging started 08/14/19 11:55:53


Gurobi 8.1.1 (win64, Matlab) logging started 08/14/19 11:55:53


Gurobi 8.1.1 (win64, Matlab) logging started 08/14/19 11:55:53


Gurobi 8.1.1 (win64, Matlab) logging started 08/14/19 11:55:53


Gurobi 8.1.1 (win64, Matlab) logging started 08/14/19 11:55:53


Gurobi 8.1.1 (win64, Matlab) logging started 08/14/19 11:55:53


Gurobi 8.1.1 (win64, Matlab) logging started 08/14/19 11:55:53


Gurobi 8.1.1 (win64, Matlab) logging started 08/14/19 11:55:53


Gurobi 8.1.1 (win64, Matlab) logging started 08/14/19 11:55:53


Gurobi 8.1.1 (win64, Matlab) logging started 08/14/19 11:55:53


Gurobi 8.1.1 (win64, Matlab) logging started 08/14/19 11:55:53


Gurobi 8.1.1 (win64, Matlab) logging started 08/14/19 11:55:53


Gurobi 8.1.1 (win64, Matlab) logging started 08/14/19 11:55:53


Gurobi 8.1.1 (win64, Matlab) logging started 08/14/19 11:55:53


Gurobi 8.1.1 (win64, Matlab) logging started 08/14/19 11:55:53


Gurobi 8.1.1 (win64, Matlab) logging started 08/14/19 11:55:53


Gurobi 8.1.1 (win64, Matlab) logging started 08/14/19 11:55:53


Gurobi 8.1.1 (win64, Matlab) logging started 08/14/19 11:55:53


Gurobi 8.1.1 (win64, Matlab) logging started 08/14/19 11:55:53


Gurobi 8.1.1 (win64, Matlab) logging started 08/14/19 11:55:53


Gurobi 8.1.1 (win64, Matlab) logging started 08/14/19 11:55:53


Gurobi 8.1.1 (win64, Matlab) logging started 08/14/19 11:55:53


Gurobi 8.1.1 (win64, Matlab) logging started 08/14/19 11:55:53


Gurobi 8.1.1 (win64, Matlab) logging started 08/14/19 11:55:53


Gurobi 8.1.1 (win64, Matlab) logging started 08/14/19 11:55:53


Gurobi 8.1.1 (win64, Matlab) logging started 08/14/19 11:55:53


Gurobi 8.1.1 (win64, Matlab) logging started 08/14/19 11:55:53


Gurobi 8.1.1 (win64, Matlab) logging started 08/14/19 11:55:53


Gurobi 8.1.1 (win64, Matlab) logging started 08/14/19 11:55:53


Gurobi 8.1.1 (win64, Matlab) logging started 08/14/19 11:55:53


Gurobi 8.1.1 (win64, Matlab) logging started 08/14/19 11:55:53


Gurobi 8.1.1 (win64, Matlab) logging started 08/14/19 11:55:53


Gurobi 8.1.1 (win64, Matlab) logging started 08/14/19 11:55:53


Gurobi 8.1.1 (win64, Matlab) logging started 08/14/19 11:55:53


Gurobi 8.1.1 (win64, Matlab) logging started 08/14/19 11:55:53


Gurobi 8.1.1 (win64, Matlab) logging started 08/14/19 11:55:53


Gurobi 8.1.1 (win64, Matlab) logging started 08/14/19 11:55:53


Gurobi 8.1.1 (win64, Matlab) logging started 08/14/19 11:55:53


Gurobi 8.1.1 (win64, Matlab) logging started 08/14/19 11:55:53


Gurobi 8.1.1 (win64, Matlab) logging started 08/14/19 11:55:53


Gurobi 8.1.1 (win64, Matlab) logging started 08/14/19 11:55:53


Gurobi 8.1.1 (win64, Matlab) logging started 08/14/19 11:55:53


Gurobi 8.1.1 (win64, Matlab) logging started 08/14/19 11:55:53


Gurobi 8.1.1 (win64, Matlab) logging started 08/14/19 11:55:53


Gurobi 8.1.1 (win64, Matlab) logging started 08/14/19 11:55:53


Gurobi 8.1.1 (win64, Matlab) logging started 08/14/19 11:55:53


Gurobi 8.1.1 (win64, Matlab) logging started 08/14/19 11:55:53


Gurobi 8.1.1 (win64, Matlab) logging started 08/14/19 11:55:53


Gurobi 8.1.1 (win64, Matlab) logging started 08/14/19 11:55:53


Gurobi 8.1.1 (win64, Matlab) logging started 08/14/19 11:55:53


Gurobi 8.1.1 (win64, Matlab) logging started 08/14/19 11:55:53


Gurobi 8.1.1 (win64, Matlab) logging started 08/14/19 11:55:53


Gurobi 8.1.1 (win64, Matlab) logging started 08/14/19 11:55:53


Gurobi 8.1.1 (win64, Matlab) logging started 08/14/19 11:55:53


Gurobi 8.1.1 (win64, Matlab) logging started 08/14/19 11:55:53


Gurobi 8.1.1 (win64, Matlab) logging started 08/14/19 11:55:53


Gurobi 8.1.1 (win64, Matlab) logging started 08/14/19 11:55:53


Gurobi 8.1.1 (win64, Matlab) logging started 08/14/19 11:55:53


Gurobi 8.1.1 (win64, Matlab) logging started 08/14/19 11:55:53


Gurobi 8.1.1 (win64, Matlab) logging started 08/14/19 11:55:53


Gurobi 8.1.1 (win64, Matlab) logging started 08/14/19 11:55:53


Gurobi 8.1.1 (win64, Matlab) logging started 08/14/19 11:55:53


Gurobi 8.1.1 (win64, Matlab) logging started 08/14/19 11:55:53


Gurobi 8.1.1 (win64, Matlab) logging started 08/14/19 11:55:53


Gurobi 8.1.1 (win64, Matlab) logging started 08/14/19 11:55:53


Gurobi 8.1.1 (win64, Matlab) logging started 08/14/19 11:55:53


Gurobi 8.1.1 (win64, Matlab) logging started 08/14/19 11:55:53


Gurobi 8.1.1 (win64, Matlab) logging started 08/14/19 11:55:53


Gurobi 8.1.1 (win64, Matlab) logging started 08/14/19 11:55:53


Gurobi 8.1.1 (win64, Matlab) logging started 08/14/19 11:55:53


Gurobi 8.1.1 (win64, Matlab) logging started 08/14/19 11:55:53


Gurobi 8.1.1 (win64, Matlab) logging started 08/14/19 11:55:53


Gurobi 8.1.1 (win64, Matlab) logging started 08/14/19 11:55:53


Gurobi 8.1.1 (win64, Matlab) logging started 08/14/19 11:55:53


Gurobi 8.1.1 (win64, Matlab) logging started 08/14/19 11:55:53


Gurobi 8.1.1 (win64, Matlab) logging started 08/14/19 11:55:53


Gurobi 8.1.1 (win64, Matlab) logging started 08/14/19 11:55:53


Gurobi 8.1.1 (win64, Matlab) logging started 08/14/19 11:55:53


Gurobi 8.1.1 (win64, Matlab) logging started 08/14/19 11:55:53


Gurobi 8.1.1 (win64, Matlab) logging started 08/14/19 11:55:53


Gurobi 8.1.1 (win64, Matlab) logging started 08/14/19 11:55:53


Gurobi 8.1.1 (win64, Matlab) logging started 08/14/19 11:55:53


Gurobi 8.1.1 (win64, Matlab) logging started 08/14/19 11:55:53


Gurobi 8.1.1 (win64, Matlab) logging started 08/14/19 11:55:53


Gurobi 8.1.1 (win64, Matlab) logging started 08/14/19 11:55:53


Gurobi 8.1.1 (win64, Matlab) logging started 08/14/19 11:55:53


Gurobi 8.1.1 (win64, Matlab) logging started 08/14/19 11:55:53


Gurobi 8.1.1 (win64, Matlab) logging started 08/14/19 11:55:53


Gurobi 8.1.1 (win64, Matlab) logging started 08/14/19 11:55:53


Gurobi 8.1.1 (win64, Matlab) logging started 08/14/19 11:55:53


Gurobi 8.1.1 (win64, Matlab) logging started 08/14/19 11:55:53


Gurobi 8.1.1 (win64, Matlab) logging started 08/14/19 11:55:53


Gurobi 8.1.1 (win64, Matlab) logging started 08/14/19 11:55:53


Gurobi 8.1.1 (win64, Matlab) logging started 08/14/19 11:55:53


Gurobi 8.1.1 (win64, Matlab) logging started 08/14/19 11:55:53


Gurobi 8.1.1 (win64, Matlab) logging started 08/14/19 11:55:53


Gurobi 8.1.1 (win64, Matlab) logging started 08/14/19 11:55:53


Gurobi 8.1.1 (win64, Matlab) logging started 08/14/19 11:55:53


Gurobi 8.1.1 (win64, Matlab) logging started 08/14/19 11:55:53


Gurobi 8.1.1 (win64, Matlab) logging started 08/14/19 11:55:53


Gurobi 8.1.1 (win64, Matlab) logging started 08/14/19 11:55:53


Gurobi 8.1.1 (win64, Matlab) logging started 08/14/19 11:55:53


Gurobi 8.1.1 (win64, Matlab) logging started 08/14/19 11:55:53


Gurobi 8.1.1 (win64, Matlab) logging started 08/14/19 14:06:10


Gurobi 8.1.1 (win64, Matlab) logging started 08/14/19 14:06:10


Gurobi 8.1.1 (win64, Matlab) logging started 08/14/19 14:15:46


Gurobi 8.1.1 (win64, Matlab) logging started 08/14/19 14:15:46

